letting numberLocations be  35
letting costs be function (
(0,0) --> 0,
(0,1) --> 33,
(0,2) --> 72,
(0,3) --> 71,
(0,4) --> 106,
(0,5) --> 22,
(0,6) --> 70,
(0,7) --> 17,
(0,8) --> 79,
(0,9) --> 49,
(0,10) --> 10,
(0,11) --> 28,
(0,12) --> 61,
(0,13) --> 77,
(0,14) --> 55,
(0,15) --> 57,
(0,16) --> 13,
(0,17) --> 72,
(0,18) --> 62,
(0,19) --> 89,
(0,20) --> 26,
(0,21) --> 56,
(0,22) --> 60,
(0,23) --> 70,
(0,24) --> 46,
(0,25) --> 32,
(0,26) --> 14,
(0,27) --> 47,
(0,28) --> 54,
(0,29) --> 77,
(0,30) --> 72,
(0,31) --> 79,
(0,32) --> 64,
(0,33) --> 70,
(0,34) --> 60,
(0,35) --> 76,
(1,0) --> 33,
(1,1) --> 0,
(1,2) --> 89,
(1,3) --> 70,
(1,4) --> 101,
(1,5) --> 37,
(1,6) --> 71,
(1,7) --> 49,
(1,8) --> 101,
(1,9) --> 54,
(1,10) --> 42,
(1,11) --> 18,
(1,12) --> 58,
(1,13) --> 46,
(1,14) --> 64,
(1,15) --> 83,
(1,16) --> 24,
(1,17) --> 46,
(1,18) --> 38,
(1,19) --> 78,
(1,20) --> 48,
(1,21) --> 32,
(1,22) --> 33,
(1,23) --> 78,
(1,24) --> 24,
(1,25) --> 26,
(1,26) --> 43,
(1,27) --> 29,
(1,28) --> 58,
(1,29) --> 53,
(1,30) --> 47,
(1,31) --> 69,
(1,32) --> 37,
(1,33) --> 48,
(1,34) --> 70,
(1,35) --> 94,
(2,0) --> 72,
(2,1) --> 89,
(2,2) --> 0,
(2,3) --> 44,
(2,4) --> 66,
(2,5) --> 54,
(2,6) --> 39,
(2,7) --> 60,
(2,8) --> 19,
(2,9) --> 39,
(2,10) --> 65,
(2,11) --> 71,
(2,12) --> 48,
(2,13) --> 108,
(2,14) --> 28,
(2,15) --> 30,
(2,16) --> 84,
(2,17) --> 95,
(2,18) --> 87,
(2,19) --> 69,
(2,20) --> 46,
(2,21) --> 84,
(2,22) --> 90,
(2,23) --> 23,
(2,24) --> 79,
(2,25) --> 65,
(2,26) --> 59,
(2,27) --> 74,
(2,28) --> 38,
(2,29) --> 92,
(2,30) --> 93,
(2,31) --> 64,
(2,32) --> 92,
(2,33) --> 84,
(2,34) --> 23,
(2,35) --> 6,
(3,0) --> 71,
(3,1) --> 70,
(3,2) --> 44,
(3,3) --> 0,
(3,4) --> 35,
(3,5) --> 50,
(3,6) --> 4,
(3,7) --> 69,
(3,8) --> 63,
(3,9) --> 23,
(3,10) --> 69,
(3,11) --> 53,
(3,12) --> 12,
(3,13) --> 71,
(3,14) --> 22,
(3,15) --> 64,
(3,16) --> 77,
(3,17) --> 56,
(3,18) --> 51,
(3,19) --> 26,
(3,20) --> 50,
(3,21) --> 51,
(3,22) --> 56,
(3,23) --> 21,
(3,24) --> 50,
(3,25) --> 45,
(3,26) --> 62,
(3,27) --> 44,
(3,28) --> 17,
(3,29) --> 52,
(3,30) --> 55,
(3,31) --> 20,
(3,32) --> 57,
(3,33) --> 44,
(3,34) --> 24,
(3,35) --> 49,
(4,0) --> 106,
(4,1) --> 101,
(4,2) --> 66,
(4,3) --> 35,
(4,4) --> 0,
(4,5) --> 85,
(4,6) --> 37,
(4,7) --> 104,
(4,8) --> 84,
(4,9) --> 58,
(4,10) --> 105,
(4,11) --> 86,
(4,12) --> 46,
(4,13) --> 88,
(4,14) --> 56,
(4,15) --> 93,
(4,16) --> 112,
(4,17) --> 74,
(4,18) --> 73,
(4,19) --> 26,
(4,20) --> 86,
(4,21) --> 76,
(4,22) --> 79,
(4,23) --> 46,
(4,24) --> 78,
(4,25) --> 78,
(4,26) --> 98,
(4,27) --> 73,
(4,28) --> 52,
(4,29) --> 66,
(4,30) --> 72,
(4,31) --> 33,
(4,32) --> 78,
(4,33) --> 62,
(4,34) --> 55,
(4,35) --> 70,
(5,0) --> 22,
(5,1) --> 37,
(5,2) --> 54,
(5,3) --> 50,
(5,4) --> 85,
(5,5) --> 0,
(5,6) --> 48,
(5,7) --> 22,
(5,8) --> 65,
(5,9) --> 27,
(5,10) --> 21,
(5,11) --> 21,
(5,12) --> 40,
(5,13) --> 70,
(5,14) --> 34,
(5,15) --> 47,
(5,16) --> 31,
(5,17) --> 62,
(5,18) --> 51,
(5,19) --> 69,
(5,20) --> 11,
(5,21) --> 46,
(5,22) --> 51,
(5,23) --> 49,
(5,24) --> 37,
(5,25) --> 19,
(5,26) --> 15,
(5,27) --> 35,
(5,28) --> 33,
(5,29) --> 64,
(5,30) --> 61,
(5,31) --> 59,
(5,32) --> 55,
(5,33) --> 56,
(5,34) --> 39,
(5,35) --> 59,
(6,0) --> 70,
(6,1) --> 71,
(6,2) --> 39,
(6,3) --> 4,
(6,4) --> 37,
(6,5) --> 48,
(6,6) --> 0,
(6,7) --> 67,
(6,8) --> 58,
(6,9) --> 21,
(6,10) --> 68,
(6,11) --> 54,
(6,12) --> 14,
(6,13) --> 74,
(6,14) --> 19,
(6,15) --> 60,
(6,16) --> 77,
(6,17) --> 60,
(6,18) --> 54,
(6,19) --> 30,
(6,20) --> 48,
(6,21) --> 54,
(6,22) --> 59,
(6,23) --> 16,
(6,24) --> 52,
(6,25) --> 46,
(6,26) --> 61,
(6,27) --> 46,
(6,28) --> 16,
(6,29) --> 56,
(6,30) --> 58,
(6,31) --> 24,
(6,32) --> 60,
(6,33) --> 48,
(6,34) --> 20,
(6,35) --> 45,
(7,0) --> 17,
(7,1) --> 49,
(7,2) --> 60,
(7,3) --> 69,
(7,4) --> 104,
(7,5) --> 22,
(7,6) --> 67,
(7,7) --> 0,
(7,8) --> 64,
(7,9) --> 46,
(7,10) --> 7,
(7,11) --> 39,
(7,12) --> 61,
(7,13) --> 89,
(7,14) --> 50,
(7,15) --> 41,
(7,16) --> 31,
(7,17) --> 83,
(7,18) --> 72,
(7,19) --> 90,
(7,20) --> 18,
(7,21) --> 67,
(7,22) --> 71,
(7,23) --> 63,
(7,24) --> 57,
(7,25) --> 40,
(7,26) --> 8,
(7,27) --> 56,
(7,28) --> 52,
(7,29) --> 86,
(7,30) --> 82,
(7,31) --> 81,
(7,32) --> 75,
(7,33) --> 78,
(7,34) --> 53,
(7,35) --> 63,
(8,0) --> 79,
(8,1) --> 101,
(8,2) --> 19,
(8,3) --> 63,
(8,4) --> 84,
(8,5) --> 65,
(8,6) --> 58,
(8,7) --> 64,
(8,8) --> 0,
(8,9) --> 55,
(8,10) --> 70,
(8,11) --> 84,
(8,12) --> 67,
(8,13) --> 124,
(8,14) --> 46,
(8,15) --> 25,
(8,16) --> 92,
(8,17) --> 112,
(8,18) --> 103,
(8,19) --> 88,
(8,20) --> 54,
(8,21) --> 100,
(8,22) --> 106,
(8,23) --> 42,
(8,24) --> 94,
(8,25) --> 78,
(8,26) --> 65,
(8,27) --> 89,
(8,28) --> 56,
(8,29) --> 110,
(8,30) --> 111,
(8,31) --> 82,
(8,32) --> 109,
(8,33) --> 101,
(8,34) --> 40,
(8,35) --> 14,
(9,0) --> 49,
(9,1) --> 54,
(9,2) --> 39,
(9,3) --> 23,
(9,4) --> 58,
(9,5) --> 27,
(9,6) --> 21,
(9,7) --> 46,
(9,8) --> 55,
(9,9) --> 0,
(9,10) --> 47,
(9,11) --> 36,
(9,12) --> 16,
(9,13) --> 69,
(9,14) --> 11,
(9,15) --> 48,
(9,16) --> 56,
(9,17) --> 57,
(9,18) --> 48,
(9,19) --> 46,
(9,20) --> 28,
(9,21) --> 46,
(9,22) --> 51,
(9,23) --> 24,
(9,24) --> 40,
(9,25) --> 28,
(9,26) --> 40,
(9,27) --> 35,
(9,28) --> 6,
(9,29) --> 56,
(9,30) --> 56,
(9,31) --> 36,
(9,32) --> 54,
(9,33) --> 47,
(9,34) --> 17,
(9,35) --> 44,
(10,0) --> 10,
(10,1) --> 42,
(10,2) --> 65,
(10,3) --> 69,
(10,4) --> 105,
(10,5) --> 21,
(10,6) --> 68,
(10,7) --> 7,
(10,8) --> 70,
(10,9) --> 47,
(10,10) --> 0,
(10,11) --> 34,
(10,12) --> 60,
(10,13) --> 84,
(10,14) --> 52,
(10,15) --> 48,
(10,16) --> 23,
(10,17) --> 78,
(10,18) --> 68,
(10,19) --> 90,
(10,20) --> 21,
(10,21) --> 62,
(10,22) --> 66,
(10,23) --> 66,
(10,24) --> 52,
(10,25) --> 36,
(10,26) --> 7,
(10,27) --> 52,
(10,28) --> 52,
(10,29) --> 82,
(10,30) --> 78,
(10,31) --> 80,
(10,32) --> 70,
(10,33) --> 74,
(10,34) --> 56,
(10,35) --> 68,
(11,0) --> 28,
(11,1) --> 18,
(11,2) --> 71,
(11,3) --> 53,
(11,4) --> 86,
(11,5) --> 21,
(11,6) --> 54,
(11,7) --> 39,
(11,8) --> 84,
(11,9) --> 36,
(11,10) --> 34,
(11,11) --> 0,
(11,12) --> 41,
(11,13) --> 50,
(11,14) --> 46,
(11,15) --> 68,
(11,16) --> 27,
(11,17) --> 44,
(11,18) --> 34,
(11,19) --> 65,
(11,20) --> 33,
(11,21) --> 28,
(11,22) --> 32,
(11,23) --> 60,
(11,24) --> 18,
(11,25) --> 8,
(11,26) --> 32,
(11,27) --> 19,
(11,28) --> 40,
(11,29) --> 49,
(11,30) --> 44,
(11,31) --> 55,
(11,32) --> 36,
(11,33) --> 42,
(11,34) --> 52,
(11,35) --> 77,
(12,0) --> 61,
(12,1) --> 58,
(12,2) --> 48,
(12,3) --> 12,
(12,4) --> 46,
(12,5) --> 40,
(12,6) --> 14,
(12,7) --> 61,
(12,8) --> 67,
(12,9) --> 16,
(12,10) --> 60,
(12,11) --> 41,
(12,12) --> 0,
(12,13) --> 61,
(12,14) --> 22,
(12,15) --> 63,
(12,16) --> 66,
(12,17) --> 47,
(12,18) --> 40,
(12,19) --> 30,
(12,20) --> 43,
(12,21) --> 40,
(12,22) --> 45,
(12,23) --> 27,
(12,24) --> 38,
(12,25) --> 33,
(12,26) --> 54,
(12,27) --> 32,
(12,28) --> 12,
(12,29) --> 44,
(12,30) --> 46,
(12,31) --> 20,
(12,32) --> 47,
(12,33) --> 35,
(12,34) --> 26,
(12,35) --> 54,
(13,0) --> 77,
(13,1) --> 46,
(13,2) --> 108,
(13,3) --> 71,
(13,4) --> 88,
(13,5) --> 70,
(13,6) --> 74,
(13,7) --> 89,
(13,8) --> 124,
(13,9) --> 69,
(13,10) --> 84,
(13,11) --> 50,
(13,12) --> 61,
(13,13) --> 0,
(13,14) --> 79,
(13,15) --> 114,
(13,16) --> 70,
(13,17) --> 15,
(13,18) --> 21,
(13,19) --> 62,
(13,20) --> 80,
(13,21) --> 24,
(13,22) --> 19,
(13,23) --> 88,
(13,24) --> 33,
(13,25) --> 51,
(13,26) --> 82,
(13,27) --> 36,
(13,28) --> 70,
(13,29) --> 22,
(13,30) --> 16,
(13,31) --> 57,
(13,32) --> 16,
(13,33) --> 27,
(13,34) --> 85,
(13,35) --> 113,
(14,0) --> 55,
(14,1) --> 64,
(14,2) --> 28,
(14,3) --> 22,
(14,4) --> 56,
(14,5) --> 34,
(14,6) --> 19,
(14,7) --> 50,
(14,8) --> 46,
(14,9) --> 11,
(14,10) --> 52,
(14,11) --> 46,
(14,12) --> 22,
(14,13) --> 79,
(14,14) --> 0,
(14,15) --> 42,
(14,16) --> 65,
(14,17) --> 66,
(14,18) --> 58,
(14,19) --> 48,
(14,20) --> 31,
(14,21) --> 56,
(14,22) --> 62,
(14,23) --> 15,
(14,24) --> 51,
(14,25) --> 38,
(14,26) --> 44,
(14,27) --> 46,
(14,28) --> 10,
(14,29) --> 64,
(14,30) --> 65,
(14,31) --> 40,
(14,32) --> 64,
(14,33) --> 56,
(14,34) --> 6,
(14,35) --> 34,
(15,0) --> 57,
(15,1) --> 83,
(15,2) --> 30,
(15,3) --> 64,
(15,4) --> 93,
(15,5) --> 47,
(15,6) --> 60,
(15,7) --> 41,
(15,8) --> 25,
(15,9) --> 48,
(15,10) --> 48,
(15,11) --> 68,
(15,12) --> 63,
(15,13) --> 114,
(15,14) --> 42,
(15,15) --> 0,
(15,16) --> 70,
(15,17) --> 103,
(15,18) --> 93,
(15,19) --> 90,
(15,20) --> 36,
(15,21) --> 89,
(15,22) --> 95,
(15,23) --> 47,
(15,24) --> 81,
(15,25) --> 64,
(15,26) --> 43,
(15,27) --> 78,
(15,28) --> 51,
(15,29) --> 103,
(15,30) --> 102,
(15,31) --> 82,
(15,32) --> 98,
(15,33) --> 94,
(15,34) --> 40,
(15,35) --> 30,
(16,0) --> 13,
(16,1) --> 24,
(16,2) --> 84,
(16,3) --> 77,
(16,4) --> 112,
(16,5) --> 31,
(16,6) --> 77,
(16,7) --> 31,
(16,8) --> 92,
(16,9) --> 56,
(16,10) --> 23,
(16,11) --> 27,
(16,12) --> 66,
(16,13) --> 70,
(16,14) --> 65,
(16,15) --> 70,
(16,16) --> 0,
(16,17) --> 68,
(16,18) --> 59,
(16,19) --> 92,
(16,20) --> 38,
(16,21) --> 52,
(16,22) --> 55,
(16,23) --> 79,
(16,24) --> 43,
(16,25) --> 34,
(16,26) --> 27,
(16,27) --> 46,
(16,28) --> 62,
(16,29) --> 74,
(16,30) --> 68,
(16,31) --> 82,
(16,32) --> 59,
(16,33) --> 68,
(16,34) --> 70,
(16,35) --> 88,
(17,0) --> 72,
(17,1) --> 46,
(17,2) --> 95,
(17,3) --> 56,
(17,4) --> 74,
(17,5) --> 62,
(17,6) --> 60,
(17,7) --> 83,
(17,8) --> 112,
(17,9) --> 57,
(17,10) --> 78,
(17,11) --> 44,
(17,12) --> 47,
(17,13) --> 15,
(17,14) --> 66,
(17,15) --> 103,
(17,16) --> 68,
(17,17) --> 0,
(17,18) --> 10,
(17,19) --> 48,
(17,20) --> 71,
(17,21) --> 16,
(17,22) --> 13,
(17,23) --> 74,
(17,24) --> 26,
(17,25) --> 43,
(17,26) --> 75,
(17,27) --> 27,
(17,28) --> 57,
(17,29) --> 9,
(17,30) --> 2,
(17,31) --> 43,
(17,32) --> 9,
(17,33) --> 13,
(17,34) --> 72,
(17,35) --> 100,
(18,0) --> 62,
(18,1) --> 38,
(18,2) --> 87,
(18,3) --> 51,
(18,4) --> 73,
(18,5) --> 51,
(18,6) --> 54,
(18,7) --> 72,
(18,8) --> 103,
(18,9) --> 48,
(18,10) --> 68,
(18,11) --> 34,
(18,12) --> 40,
(18,13) --> 21,
(18,14) --> 58,
(18,15) --> 93,
(18,16) --> 59,
(18,17) --> 10,
(18,18) --> 0,
(18,19) --> 47,
(18,20) --> 61,
(18,21) --> 6,
(18,22) --> 6,
(18,23) --> 67,
(18,24) --> 16,
(18,25) --> 33,
(18,26) --> 64,
(18,27) --> 16,
(18,28) --> 48,
(18,29) --> 15,
(18,30) --> 10,
(18,31) --> 40,
(18,32) --> 6,
(18,33) --> 12,
(18,34) --> 64,
(18,35) --> 92,
(19,0) --> 89,
(19,1) --> 78,
(19,2) --> 69,
(19,3) --> 26,
(19,4) --> 26,
(19,5) --> 69,
(19,6) --> 30,
(19,7) --> 90,
(19,8) --> 88,
(19,9) --> 46,
(19,10) --> 90,
(19,11) --> 65,
(19,12) --> 30,
(19,13) --> 62,
(19,14) --> 48,
(19,15) --> 90,
(19,16) --> 92,
(19,17) --> 48,
(19,18) --> 47,
(19,19) --> 0,
(19,20) --> 73,
(19,21) --> 51,
(19,22) --> 53,
(19,23) --> 46,
(19,24) --> 55,
(19,25) --> 58,
(19,26) --> 83,
(19,27) --> 49,
(19,28) --> 41,
(19,29) --> 40,
(19,30) --> 46,
(19,31) --> 10,
(19,32) --> 53,
(19,33) --> 36,
(19,34) --> 50,
(19,35) --> 74,
(20,0) --> 26,
(20,1) --> 48,
(20,2) --> 46,
(20,3) --> 50,
(20,4) --> 86,
(20,5) --> 11,
(20,6) --> 48,
(20,7) --> 18,
(20,8) --> 54,
(20,9) --> 28,
(20,10) --> 21,
(20,11) --> 33,
(20,12) --> 43,
(20,13) --> 80,
(20,14) --> 31,
(20,15) --> 36,
(20,16) --> 38,
(20,17) --> 71,
(20,18) --> 61,
(20,19) --> 73,
(20,20) --> 0,
(20,21) --> 56,
(20,22) --> 62,
(20,23) --> 45,
(20,24) --> 47,
(20,25) --> 30,
(20,26) --> 13,
(20,27) --> 45,
(20,28) --> 33,
(20,29) --> 73,
(20,30) --> 71,
(20,31) --> 63,
(20,32) --> 65,
(20,33) --> 65,
(20,34) --> 35,
(20,35) --> 50,
(21,0) --> 56,
(21,1) --> 32,
(21,2) --> 84,
(21,3) --> 51,
(21,4) --> 76,
(21,5) --> 46,
(21,6) --> 54,
(21,7) --> 67,
(21,8) --> 100,
(21,9) --> 46,
(21,10) --> 62,
(21,11) --> 28,
(21,12) --> 40,
(21,13) --> 24,
(21,14) --> 56,
(21,15) --> 89,
(21,16) --> 52,
(21,17) --> 16,
(21,18) --> 6,
(21,19) --> 51,
(21,20) --> 56,
(21,21) --> 0,
(21,22) --> 6,
(21,23) --> 66,
(21,24) --> 10,
(21,25) --> 27,
(21,26) --> 59,
(21,27) --> 12,
(21,28) --> 47,
(21,29) --> 22,
(21,30) --> 16,
(21,31) --> 43,
(21,32) --> 9,
(21,33) --> 17,
(21,34) --> 62,
(21,35) --> 90,
(22,0) --> 60,
(22,1) --> 33,
(22,2) --> 90,
(22,3) --> 56,
(22,4) --> 79,
(22,5) --> 51,
(22,6) --> 59,
(22,7) --> 71,
(22,8) --> 106,
(22,9) --> 51,
(22,10) --> 66,
(22,11) --> 32,
(22,12) --> 45,
(22,13) --> 19,
(22,14) --> 62,
(22,15) --> 95,
(22,16) --> 55,
(22,17) --> 13,
(22,18) --> 6,
(22,19) --> 53,
(22,20) --> 62,
(22,21) --> 6,
(22,22) --> 0,
(22,23) --> 72,
(22,24) --> 15,
(22,25) --> 32,
(22,26) --> 64,
(22,27) --> 17,
(22,28) --> 52,
(22,29) --> 20,
(22,30) --> 13,
(22,31) --> 46,
(22,32) --> 4,
(22,33) --> 18,
(22,34) --> 68,
(22,35) --> 96,
(23,0) --> 70,
(23,1) --> 78,
(23,2) --> 23,
(23,3) --> 21,
(23,4) --> 46,
(23,5) --> 49,
(23,6) --> 16,
(23,7) --> 63,
(23,8) --> 42,
(23,9) --> 24,
(23,10) --> 66,
(23,11) --> 60,
(23,12) --> 27,
(23,13) --> 88,
(23,14) --> 15,
(23,15) --> 47,
(23,16) --> 79,
(23,17) --> 74,
(23,18) --> 67,
(23,19) --> 46,
(23,20) --> 45,
(23,21) --> 66,
(23,22) --> 72,
(23,23) --> 0,
(23,24) --> 63,
(23,25) --> 52,
(23,26) --> 58,
(23,27) --> 57,
(23,28) --> 20,
(23,29) --> 71,
(23,30) --> 73,
(23,31) --> 40,
(23,32) --> 73,
(23,33) --> 62,
(23,34) --> 10,
(23,35) --> 29,
(24,0) --> 46,
(24,1) --> 24,
(24,2) --> 79,
(24,3) --> 50,
(24,4) --> 78,
(24,5) --> 37,
(24,6) --> 52,
(24,7) --> 57,
(24,8) --> 94,
(24,9) --> 40,
(24,10) --> 52,
(24,11) --> 18,
(24,12) --> 38,
(24,13) --> 33,
(24,14) --> 51,
(24,15) --> 81,
(24,16) --> 43,
(24,17) --> 26,
(24,18) --> 16,
(24,19) --> 55,
(24,20) --> 47,
(24,21) --> 10,
(24,22) --> 15,
(24,23) --> 63,
(24,24) --> 0,
(24,25) --> 18,
(24,26) --> 49,
(24,27) --> 6,
(24,28) --> 42,
(24,29) --> 31,
(24,30) --> 26,
(24,31) --> 46,
(24,32) --> 18,
(24,33) --> 25,
(24,34) --> 57,
(24,35) --> 84,
(25,0) --> 32,
(25,1) --> 26,
(25,2) --> 65,
(25,3) --> 45,
(25,4) --> 78,
(25,5) --> 19,
(25,6) --> 46,
(25,7) --> 40,
(25,8) --> 78,
(25,9) --> 28,
(25,10) --> 36,
(25,11) --> 8,
(25,12) --> 33,
(25,13) --> 51,
(25,14) --> 38,
(25,15) --> 64,
(25,16) --> 34,
(25,17) --> 43,
(25,18) --> 33,
(25,19) --> 58,
(25,20) --> 30,
(25,21) --> 27,
(25,22) --> 32,
(25,23) --> 52,
(25,24) --> 18,
(25,25) --> 0,
(25,26) --> 32,
(25,27) --> 16,
(25,28) --> 32,
(25,29) --> 46,
(25,30) --> 42,
(25,31) --> 48,
(25,32) --> 36,
(25,33) --> 38,
(25,34) --> 45,
(25,35) --> 70,
(26,0) --> 14,
(26,1) --> 43,
(26,2) --> 59,
(26,3) --> 62,
(26,4) --> 98,
(26,5) --> 15,
(26,6) --> 61,
(26,7) --> 8,
(26,8) --> 65,
(26,9) --> 40,
(26,10) --> 7,
(26,11) --> 32,
(26,12) --> 54,
(26,13) --> 82,
(26,14) --> 44,
(26,15) --> 43,
(26,16) --> 27,
(26,17) --> 75,
(26,18) --> 64,
(26,19) --> 83,
(26,20) --> 13,
(26,21) --> 59,
(26,22) --> 64,
(26,23) --> 58,
(26,24) --> 49,
(26,25) --> 32,
(26,26) --> 0,
(26,27) --> 48,
(26,28) --> 45,
(26,29) --> 78,
(26,30) --> 74,
(26,31) --> 73,
(26,32) --> 67,
(26,33) --> 70,
(26,34) --> 48,
(26,35) --> 62,
(27,0) --> 47,
(27,1) --> 29,
(27,2) --> 74,
(27,3) --> 44,
(27,4) --> 73,
(27,5) --> 35,
(27,6) --> 46,
(27,7) --> 56,
(27,8) --> 89,
(27,9) --> 35,
(27,10) --> 52,
(27,11) --> 19,
(27,12) --> 32,
(27,13) --> 36,
(27,14) --> 46,
(27,15) --> 78,
(27,16) --> 46,
(27,17) --> 27,
(27,18) --> 16,
(27,19) --> 49,
(27,20) --> 45,
(27,21) --> 12,
(27,22) --> 17,
(27,23) --> 57,
(27,24) --> 6,
(27,25) --> 16,
(27,26) --> 48,
(27,27) --> 0,
(27,28) --> 37,
(27,29) --> 30,
(27,30) --> 26,
(27,31) --> 40,
(27,32) --> 21,
(27,33) --> 23,
(27,34) --> 52,
(27,35) --> 79,
(28,0) --> 54,
(28,1) --> 58,
(28,2) --> 38,
(28,3) --> 17,
(28,4) --> 52,
(28,5) --> 33,
(28,6) --> 16,
(28,7) --> 52,
(28,8) --> 56,
(28,9) --> 6,
(28,10) --> 52,
(28,11) --> 40,
(28,12) --> 12,
(28,13) --> 70,
(28,14) --> 10,
(28,15) --> 51,
(28,16) --> 62,
(28,17) --> 57,
(28,18) --> 48,
(28,19) --> 41,
(28,20) --> 33,
(28,21) --> 47,
(28,22) --> 52,
(28,23) --> 20,
(28,24) --> 42,
(28,25) --> 32,
(28,26) --> 45,
(28,27) --> 37,
(28,28) --> 0,
(28,29) --> 54,
(28,30) --> 55,
(28,31) --> 32,
(28,32) --> 54,
(28,33) --> 46,
(28,34) --> 16,
(28,35) --> 44,
(29,0) --> 77,
(29,1) --> 53,
(29,2) --> 92,
(29,3) --> 52,
(29,4) --> 66,
(29,5) --> 64,
(29,6) --> 56,
(29,7) --> 86,
(29,8) --> 110,
(29,9) --> 56,
(29,10) --> 82,
(29,11) --> 49,
(29,12) --> 44,
(29,13) --> 22,
(29,14) --> 64,
(29,15) --> 103,
(29,16) --> 74,
(29,17) --> 9,
(29,18) --> 15,
(29,19) --> 40,
(29,20) --> 73,
(29,21) --> 22,
(29,22) --> 20,
(29,23) --> 71,
(29,24) --> 31,
(29,25) --> 46,
(29,26) --> 78,
(29,27) --> 30,
(29,28) --> 54,
(29,29) --> 0,
(29,30) --> 7,
(29,31) --> 36,
(29,32) --> 17,
(29,33) --> 9,
(29,34) --> 70,
(29,35) --> 98,
(30,0) --> 72,
(30,1) --> 47,
(30,2) --> 93,
(30,3) --> 55,
(30,4) --> 72,
(30,5) --> 61,
(30,6) --> 58,
(30,7) --> 82,
(30,8) --> 111,
(30,9) --> 56,
(30,10) --> 78,
(30,11) --> 44,
(30,12) --> 46,
(30,13) --> 16,
(30,14) --> 65,
(30,15) --> 102,
(30,16) --> 68,
(30,17) --> 2,
(30,18) --> 10,
(30,19) --> 46,
(30,20) --> 71,
(30,21) --> 16,
(30,22) --> 13,
(30,23) --> 73,
(30,24) --> 26,
(30,25) --> 42,
(30,26) --> 74,
(30,27) --> 26,
(30,28) --> 55,
(30,29) --> 7,
(30,30) --> 0,
(30,31) --> 41,
(30,32) --> 10,
(30,33) --> 11,
(30,34) --> 71,
(30,35) --> 99,
(31,0) --> 79,
(31,1) --> 69,
(31,2) --> 64,
(31,3) --> 20,
(31,4) --> 33,
(31,5) --> 59,
(31,6) --> 24,
(31,7) --> 81,
(31,8) --> 82,
(31,9) --> 36,
(31,10) --> 80,
(31,11) --> 55,
(31,12) --> 20,
(31,13) --> 57,
(31,14) --> 40,
(31,15) --> 82,
(31,16) --> 82,
(31,17) --> 43,
(31,18) --> 40,
(31,19) --> 10,
(31,20) --> 63,
(31,21) --> 43,
(31,22) --> 46,
(31,23) --> 40,
(31,24) --> 46,
(31,25) --> 48,
(31,26) --> 73,
(31,27) --> 40,
(31,28) --> 32,
(31,29) --> 36,
(31,30) --> 41,
(31,31) --> 0,
(31,32) --> 46,
(31,33) --> 30,
(31,34) --> 43,
(31,35) --> 69,
(32,0) --> 64,
(32,1) --> 37,
(32,2) --> 92,
(32,3) --> 57,
(32,4) --> 78,
(32,5) --> 55,
(32,6) --> 60,
(32,7) --> 75,
(32,8) --> 109,
(32,9) --> 54,
(32,10) --> 70,
(32,11) --> 36,
(32,12) --> 47,
(32,13) --> 16,
(32,14) --> 64,
(32,15) --> 98,
(32,16) --> 59,
(32,17) --> 9,
(32,18) --> 6,
(32,19) --> 53,
(32,20) --> 65,
(32,21) --> 9,
(32,22) --> 4,
(32,23) --> 73,
(32,24) --> 18,
(32,25) --> 36,
(32,26) --> 67,
(32,27) --> 21,
(32,28) --> 54,
(32,29) --> 17,
(32,30) --> 10,
(32,31) --> 46,
(32,32) --> 0,
(32,33) --> 16,
(32,34) --> 70,
(32,35) --> 98,
(33,0) --> 70,
(33,1) --> 48,
(33,2) --> 84,
(33,3) --> 44,
(33,4) --> 62,
(33,5) --> 56,
(33,6) --> 48,
(33,7) --> 78,
(33,8) --> 101,
(33,9) --> 47,
(33,10) --> 74,
(33,11) --> 42,
(33,12) --> 35,
(33,13) --> 27,
(33,14) --> 56,
(33,15) --> 94,
(33,16) --> 68,
(33,17) --> 13,
(33,18) --> 12,
(33,19) --> 36,
(33,20) --> 65,
(33,21) --> 17,
(33,22) --> 18,
(33,23) --> 62,
(33,24) --> 25,
(33,25) --> 38,
(33,26) --> 70,
(33,27) --> 23,
(33,28) --> 46,
(33,29) --> 9,
(33,30) --> 11,
(33,31) --> 30,
(33,32) --> 16,
(33,33) --> 0,
(33,34) --> 61,
(33,35) --> 89,
(34,0) --> 60,
(34,1) --> 70,
(34,2) --> 23,
(34,3) --> 24,
(34,4) --> 55,
(34,5) --> 39,
(34,6) --> 20,
(34,7) --> 53,
(34,8) --> 40,
(34,9) --> 17,
(34,10) --> 56,
(34,11) --> 52,
(34,12) --> 26,
(34,13) --> 85,
(34,14) --> 6,
(34,15) --> 40,
(34,16) --> 70,
(34,17) --> 72,
(34,18) --> 64,
(34,19) --> 50,
(34,20) --> 35,
(34,21) --> 62,
(34,22) --> 68,
(34,23) --> 10,
(34,24) --> 57,
(34,25) --> 45,
(34,26) --> 48,
(34,27) --> 52,
(34,28) --> 16,
(34,29) --> 70,
(34,30) --> 71,
(34,31) --> 43,
(34,32) --> 70,
(34,33) --> 61,
(34,34) --> 0,
(34,35) --> 28,
(35,0) --> 76,
(35,1) --> 94,
(35,2) --> 6,
(35,3) --> 49,
(35,4) --> 70,
(35,5) --> 59,
(35,6) --> 45,
(35,7) --> 63,
(35,8) --> 14,
(35,9) --> 44,
(35,10) --> 68,
(35,11) --> 77,
(35,12) --> 54,
(35,13) --> 113,
(35,14) --> 34,
(35,15) --> 30,
(35,16) --> 88,
(35,17) --> 100,
(35,18) --> 92,
(35,19) --> 74,
(35,20) --> 50,
(35,21) --> 90,
(35,22) --> 96,
(35,23) --> 29,
(35,24) --> 84,
(35,25) --> 70,
(35,26) --> 62,
(35,27) --> 79,
(35,28) --> 44,
(35,29) --> 98,
(35,30) --> 99,
(35,31) --> 69,
(35,32) --> 98,
(35,33) --> 89,
(35,34) --> 28,
(35,35) --> 0)
letting orderWeights be function (
1 --> 1
,
2 --> 14
,
3 --> 15
,
4 --> 11
,
5 --> 18
,
6 --> 2
,
7 --> 22
,
8 --> 7
,
9 --> 18
,
10 --> 23
,
11 --> 12
,
12 --> 21
,
13 --> 2
,
14 --> 14
,
15 --> 9
,
16 --> 10
,
17 --> 4
,
18 --> 19
,
19 --> 2
,
20 --> 20
,
21 --> 15
,
22 --> 11
,
23 --> 6
,
24 --> 13
,
25 --> 19
,
26 --> 13
,
27 --> 8
,
28 --> 15
,
29 --> 18
,
30 --> 11
,
31 --> 21
,
32 --> 12
,
33 --> 2
,
34 --> 23
,
35 --> 11
)
letting vehicleCapacity be 100
